c clasp version 2.1.1
c Reading from p07.cnf
c Solving...
s SATISFIABLE

c Models        : 1+    
c Time          : 0.304s (Solving: 0.08s 1st Model: 0.08s Unsat: 0.00s)
c CPU Time      : 0.300s
c Choices       : 2341
c Conflicts     : 731
c Restarts      : 3      (Average: 243.67 Last: 100)

c Variables     : 66859  (Eliminated: 20059 Frozen:    0)
c Constraints   : 62556  (Binary: 67.1% Ternary: 30.8% Other:  2.1%)
c Lemmas        : 731    (Binary:  0.5% Ternary:  1.6% Other: 97.8%)
c   Conflict    : 731    (Average Length: 128.7) 
c   Loop        : 0      (Average Length: 0.0) 
c   Other       : 0      (Average Length: 0.0)
c   Deleted     : 0     
